NAME : tsp_411_sol.txt
COMMENT : OR-Tools Guided Local Search
TYPE : TOUR
DIMENSION : 50
COST : 5886
STATUS : ROUTING_SUCCESS
GAP : 0.00% (Reference Solution)
TOUR_SECTION
1
15
36
38
7
42
44
4
23
18
14
37
26
12
32
41
33
10
48
17
40
35
50
29
34
19
24
43
20
2
47
16
11
9
25
8
45
27
49
21
22
6
39
13
31
30
46
5
3
28
-1
